param set_len = 26;
param target := 955678;
param values := [1] 107629 [2] 98933 [3] 41645 [4] 39797 [5] 81687 [6] 104704 [7] 106319 [8] 105383 [9] 87948 [10] 27814 [11] 37489 [12] 104097 [13] 85322 [14] 21993 [15] 5003 [16] 129389 [17] 51799 [18] 100449 [19] 5566 [20] 108741 [21] 71041 [22] 71293 [23] 57193 [24] 6675 [25] 92099 [26] 22104 ;
